solution status: optimal solution found
objective value:                     114560.461286987
d11(0,0)                                            1 	(obj:0)
d11(1,1)                                            1 	(obj:0)
d11(1,2)                                            1 	(obj:0)
d11(2,4)                                            1 	(obj:0)
d11(2,5)                                            1 	(obj:0)
d11(2,7)                                            1 	(obj:0)
d11(2,8)                                            1 	(obj:0)
d11(2,10)                                           1 	(obj:0)
d11(2,11)                                           1 	(obj:0)
d11(3,13)                                           1 	(obj:0)
d11(3,14)                                           1 	(obj:0)
d11(3,16)                                           1 	(obj:0)
d11(3,17)                                           1 	(obj:0)
d11(3,18)                                           1 	(obj:0)
d11(3,19)                                           1 	(obj:0)
d11(3,20)                                           1 	(obj:0)
d11(3,21)                                           1 	(obj:0)
d11(3,22)                                           1 	(obj:0)
d11(3,23)                                           1 	(obj:0)
d11(3,24)                                           1 	(obj:0)
d11(3,25)                                           1 	(obj:0)
d11(3,26)                                           1 	(obj:0)
d11(3,27)                                           1 	(obj:0)
d11(3,28)                                           1 	(obj:0)
d11(3,29)                                           1 	(obj:0)
d11(3,31)                                           1 	(obj:0)
d11(3,32)                                           1 	(obj:0)
d11(3,33)                                           1 	(obj:0)
d11(3,34)                                           1 	(obj:0)
d11(3,35)                                           1 	(obj:0)
d11(3,37)                                           1 	(obj:0)
d11(3,38)                                           1 	(obj:0)
d12(1,3)                                            1 	(obj:0)
d12(2,6)                                            1 	(obj:0)
d12(2,9)                                            1 	(obj:0)
d12(2,12)                                           1 	(obj:0)
d21(3,13)                                           1 	(obj:0)
d21(3,14)                                           1 	(obj:0)
d21(3,15)                                           1 	(obj:0)
d21(3,16)                                           1 	(obj:0)
d21(3,17)                                           1 	(obj:0)
d21(3,19)                                           1 	(obj:0)
d21(3,22)                           0.999999999999999 	(obj:0)
d21(3,23)                                           1 	(obj:0)
d21(3,25)                                           1 	(obj:0)
d21(3,28)                                           1 	(obj:0)
d21(3,31)                                           1 	(obj:0)
STE(1,1)                             7585.93442826343 	(obj:0)
STE(0,0)                                         9450 	(obj:0)
STE(1,2)                             8582.70043159672 	(obj:0)
STE(1,3)                             9507.51807506994 	(obj:0)
STE(2,4)                             5721.86885652687 	(obj:0)
STE(2,5)                             6718.63485986016 	(obj:0)
STE(2,6)                             7643.45250333338 	(obj:0)
STE(2,7)                             6718.63485986016 	(obj:0)
STE(2,8)                             7715.40086319343 	(obj:0)
STE(2,9)                             8640.21850666667 	(obj:0)
STE(2,10)                            7643.45250333338 	(obj:0)
STE(2,11)                            8640.21850666667 	(obj:0)
STE(2,12)                            9565.03615013989 	(obj:0)
STE(3,13)                             2751.6506498602 	(obj:0)
STE(3,14)                            3748.41665319349 	(obj:0)
STE(3,15)                            4965.86885652687 	(obj:0)
STE(3,16)                            3748.41665319349 	(obj:0)
STE(3,17)                            4745.18265652678 	(obj:0)
STE(3,18)                            5962.63485986016 	(obj:0)
STE(3,19)                            4673.23429666671 	(obj:0)
STE(3,20)                                   5670.0003 	(obj:0)
STE(3,21)                            6887.45250333338 	(obj:0)
STE(3,22)                            3748.41665319349 	(obj:0)
STE(3,23)                            4745.18265652678 	(obj:0)
STE(3,24)                            5962.63485986016 	(obj:0)
STE(3,25)                            4745.18265652676 	(obj:0)
STE(3,26)                            5741.94865986005 	(obj:0)
STE(3,27)                            6959.40086319343 	(obj:0)
STE(3,28)                                   5670.0003 	(obj:0)
STE(3,29)                            6666.76630333329 	(obj:0)
STE(3,30)                            7884.21850666667 	(obj:0)
STE(3,31)                            4673.23429666671 	(obj:0)
STE(3,32)                                   5670.0003 	(obj:0)
STE(3,33)                            6887.45250333338 	(obj:0)
STE(3,34)                                   5670.0003 	(obj:0)
STE(3,35)                            6666.76630333329 	(obj:0)
STE(3,36)                            7884.21850666667 	(obj:0)
STE(3,37)                            6594.81794347322 	(obj:0)
STE(3,38)                            7591.58394680651 	(obj:0)
STE(3,39)                            8809.03615013989 	(obj:0)
y1(3,23)                             1095.70698300004 	(obj:0)
y1(3,25)                                  1992.796386 	(obj:0)
y1(3,26)                             1095.70698300004 	(obj:0)
y1(3,28)                                  1992.796386 	(obj:0)
y1(3,29)                             1095.70698300004 	(obj:0)
y1(3,31)                                  1992.796386 	(obj:0)
y1(3,32)                             1095.70698300004 	(obj:0)
y1(3,34)                                  1992.796386 	(obj:0)
y1(3,35)                             1095.70698300004 	(obj:0)
y1(3,37)                                  1992.796386 	(obj:0)
y1(3,38)                             1095.70698300004 	(obj:0)
BG(3)                                1204.56299667522 	(obj:10)
AVE(1)                               3199.95851117552 	(obj:0)
WB(2)                                3265.15049132519 	(obj:0)
AVE(2)                               3265.15049132519 	(obj:0)
AVE(3)                               3291.35535332476 	(obj:0)
WG(1)                                3199.95851117552 	(obj:10)
WG(3)                                3291.35535332476 	(obj:10)
BG(1)                                280.105378174373 	(obj:10)
BG(2)                                3480.06388934989 	(obj:10)
y1(1,1)                               997.25901456291 	(obj:0)
y1(1,2)                              100.169611562948 	(obj:0)
y1(2,4)                              997.259014562906 	(obj:0)
y1(2,5)                              100.169611562945 	(obj:0)
y1(2,7)                              997.259014562906 	(obj:0)
y1(2,8)                              100.169611562963 	(obj:0)
y1(2,10)                             997.259014562906 	(obj:0)
y1(2,11)                             100.169611562943 	(obj:0)
y1(3,13)                                  1992.796386 	(obj:0)
y1(3,14)                             1095.70698300004 	(obj:0)
y1(3,16)                                  1992.796386 	(obj:0)
y1(3,17)                             1095.70698300004 	(obj:0)
y1(3,19)                                  1992.796386 	(obj:0)
y1(3,20)                             1095.70698300004 	(obj:0)
y1(3,22)                                  1992.796386 	(obj:0)
y2(1,3)                              856.334815863096 	(obj:0)
y2(2,6)                                856.3348158631 	(obj:0)
y2(2,9)                                856.3348158631 	(obj:0)
y2(2,12)                               856.3348158631 	(obj:0)
